decision_x1=[0,2];
decision_x2=[0,2];
decision_x3=[0,2];
decision_x4=[0,2];
decision_x5=[0,2];
random_y1=[0,2];
constraint_x2_x1=[
0,1,5.2|
0,2,7.5|
1,0,7.4|
1,2,7.8|
2,0,0.84|
2,1,4.7|
];
constraint_x3_x1=[
0,1,7.5|
0,2,7.4|
1,0,9.7|
1,2,5|
2,0,6.8|
2,1,1.4|
];
constraint_x5_x2=[
0,1,6.3|
0,2,7.3|
1,0,8|
1,2,0.22|
2,0,1.6|
2,1,8.8|
];
constraint_x5_x3=[
0,1,7|
0,2,1.5|
1,0,6|
1,2,4.3|
2,0,7.7|
2,1,2.6|
];
constraint_x5_x4=[
0,1,6.9|
0,2,2.7|
1,0,4.7|
1,2,4|
2,0,6|
2,1,9|
];
constraint_x1_y1=[
0,0,7|
0,1,8.9|
0,2,7.6|
1,0,1.7|
1,1,5.6|
1,2,8.6|
2,0,1.6|
2,1,6.4|
2,2,8.2|
];
initial_distribution_y1=[0.47,0.45,0.076];
transition_y1=[
0.27,0.45,0.28|
0.18,0.17,0.65|
0.038,0.45,0.51|
];
